TCS_Benchmarks/redos_fix/snort3_output_distinct_2077_2076_2_0.smt2
(set-logic QF_S)
(declare-const x String)
(assert (str.in.re x (re.inter  (re.++ (re.* (re.union (re.range "\u{09}" "\u{0d}") (re.range "\u{20}" "\u{20}") (re.range "\u{85}" "\u{85}") (re.range "\u{a0}" "\u{a0}")) )  (re.++ (re.comp  (re.union  (str.to_re "\u{0A}")  (str.to.re "\u{3e}"))) (re.++ (re.comp  (re.union  (str.to_re "\u{0A}")  (str.to.re "\u{3e}"))) (re.++ (re.comp  (re.union  (str.to_re "\u{0A}")  (str.to.re "\u{3e}"))) (re.++ (re.comp  (re.union  (str.to_re "\u{0A}")  (str.to.re "\u{3e}"))) (re.++ (re.comp  (re.union  (str.to_re "\u{0A}")  (str.to.re "\u{3e}"))) (re.++ (re.comp  (re.union  (str.to_re "\u{0A}")  (str.to.re "\u{3e}"))) (re.++ (re.comp  (re.union  (str.to_re "\u{0A}")  (str.to.re "\u{3e}"))) (re.++ (re.comp  (re.union  (str.to_re "\u{0A}")  (str.to.re "\u{3e}"))) (re.++ (re.comp  (re.union  (str.to_re "\u{0A}")  (str.to.re "\u{3e}"))) (re.++ (re.comp  (re.union  (str.to_re "\u{0A}")  (str.to.re "\u{3e}"))) (re.++ (re.comp  (re.union  (str.to_re "\u{0A}")  (str.to.re "\u{3e}"))) (re.++ (re.comp  (re.union  (str.to_re "\u{0A}")  (str.to.re "\u{3e}"))) (re.++ (re.comp  (re.union  (str.to_re "\u{0A}")  (str.to.re "\u{3e}"))) (re.++ (re.comp  (re.union  (str.to_re "\u{0A}")  (str.to.re "\u{3e}"))) (re.++ (re.comp  (re.union  (str.to_re "\u{0A}")  (str.to.re "\u{3e}"))) (re.++ (re.comp  (re.union  (str.to_re "\u{0A}")  (str.to.re "\u{3e}"))) (re.++ (re.comp  (re.union  (str.to_re "\u{0A}")  (str.to.re "\u{3e}"))) (re.++ (re.comp  (re.union  (str.to_re "\u{0A}")  (str.to.re "\u{3e}"))) (re.++ (re.comp  (re.union  (str.to_re "\u{0A}")  (str.to.re "\u{3e}"))) (re.++ (re.comp  (re.union  (str.to_re "\u{0A}")  (str.to.re "\u{3e}"))) (re.++ (re.comp  (re.union  (str.to_re "\u{0A}")  (str.to.re "\u{3e}"))) (re.++ (re.comp  (re.union  (str.to_re "\u{0A}")  (str.to.re "\u{3e}"))) (re.++ (re.comp  (re.union  (str.to_re "\u{0A}")  (str.to.re "\u{3e}"))) (re.++ (re.comp  (re.union  (str.to_re "\u{0A}")  (str.to.re "\u{3e}"))) (re.++ (re.comp  (re.union  (str.to_re "\u{0A}")  (str.to.re "\u{3e}"))) (re.++ (re.comp  (re.union  (str.to_re "\u{0A}")  (str.to.re "\u{3e}"))) (re.++ (re.comp  (re.union  (str.to_re "\u{0A}")  (str.to.re "\u{3e}"))) (re.++ (re.comp  (re.union  (str.to_re "\u{0A}")  (str.to.re "\u{3e}"))) (re.++ (re.comp  (re.union  (str.to_re "\u{0A}")  (str.to.re "\u{3e}"))) (re.++ (re.comp  (re.union  (str.to_re "\u{0A}")  (str.to.re "\u{3e}"))) (re.++ (re.comp  (re.union  (str.to_re "\u{0A}")  (str.to.re "\u{3e}"))) (re.++ (re.comp  (re.union  (str.to_re "\u{0A}")  (str.to.re "\u{3e}"))) (re.++ (re.comp  (re.union  (str.to_re "\u{0A}")  (str.to.re "\u{3e}"))) (re.++ (re.comp  (re.union  (str.to_re "\u{0A}")  (str.to.re "\u{3e}"))) (re.++ (re.comp  (re.union  (str.to_re "\u{0A}")  (str.to.re "\u{3e}"))) (re.++ (re.comp  (re.union  (str.to_re "\u{0A}")  (str.to.re "\u{3e}"))) (re.++ (re.comp  (re.union  (str.to_re "\u{0A}")  (str.to.re "\u{3e}"))) (re.++ (re.comp  (re.union  (str.to_re "\u{0A}")  (str.to.re "\u{3e}"))) (re.++ (re.comp  (re.union  (str.to_re "\u{0A}")  (str.to.re "\u{3e}"))) (re.++ (re.comp  (re.union  (str.to_re "\u{0A}")  (str.to.re "\u{3e}"))) (re.++ (re.comp  (re.union  (str.to_re "\u{0A}")  (str.to.re "\u{3e}"))) (re.++ (re.comp  (re.union  (str.to_re "\u{0A}")  (str.to.re "\u{3e}"))) (re.++ (re.comp  (re.union  (str.to_re "\u{0A}")  (str.to.re "\u{3e}"))) (re.++ (re.comp  (re.union  (str.to_re "\u{0A}")  (str.to.re "\u{3e}"))) (re.++ (re.comp  (re.union  (str.to_re "\u{0A}")  (str.to.re "\u{3e}"))) (re.++ (re.comp  (re.union  (str.to_re "\u{0A}")  (str.to.re "\u{3e}"))) (re.++ (re.comp  (re.union  (str.to_re "\u{0A}")  (str.to.re "\u{3e}"))) (re.++ (re.comp  (re.union  (str.to_re "\u{0A}")  (str.to.re "\u{3e}"))) (re.++ (re.comp  (re.union  (str.to_re "\u{0A}")  (str.to.re "\u{3e}"))) (re.++ (re.comp  (re.union  (str.to_re "\u{0A}")  (str.to.re "\u{3e}"))) (re.++ (re.comp  (re.union  (str.to_re "\u{0A}")  (str.to.re "\u{3e}"))) (re.++ (re.comp  (re.union  (str.to_re "\u{0A}")  (str.to.re "\u{3e}"))) (re.++ (re.comp  (re.union  (str.to_re "\u{0A}")  (str.to.re "\u{3e}"))) (re.++ (re.comp  (re.union  (str.to_re "\u{0A}")  (str.to.re "\u{3e}"))) (re.++ (re.comp  (re.union  (str.to_re "\u{0A}")  (str.to.re "\u{3e}"))) (re.++ (re.comp  (re.union  (str.to_re "\u{0A}")  (str.to.re "\u{3e}"))) (re.++ (re.comp  (re.union  (str.to_re "\u{0A}")  (str.to.re "\u{3e}"))) (re.++ (re.comp  (re.union  (str.to_re "\u{0A}")  (str.to.re "\u{3e}"))) (re.++ (re.comp  (re.union  (str.to_re "\u{0A}")  (str.to.re "\u{3e}"))) (re.++ (re.comp  (re.union  (str.to_re "\u{0A}")  (str.to.re "\u{3e}"))) (re.++ (re.comp  (re.union  (str.to_re "\u{0A}")  (str.to.re "\u{3e}"))) (re.++ (re.comp  (re.union  (str.to_re "\u{0A}")  (str.to.re "\u{3e}"))) (re.++ (re.comp  (re.union  (str.to_re "\u{0A}")  (str.to.re "\u{3e}"))) (re.comp  (re.union  (str.to_re "\u{0A}")  (str.to.re "\u{3e}")))))))))))))))))))))))))))))))))))))))))))))))))))))))))))))))))))  (re.++ (re.* (re.union (re.range "\u{09}" "\u{0d}") (re.range "\u{20}" "\u{20}") (re.range "\u{85}" "\u{85}") (re.range "\u{a0}" "\u{a0}")) ) (re.++ (re.opt  (str.to.re "\u{3c}") )  (re.++ (re.comp  (re.union  (str.to_re "\u{0A}")  (str.to.re "\u{3e}"))) (re.++ (re.comp  (re.union  (str.to_re "\u{0A}")  (str.to.re "\u{3e}"))) (re.++ (re.comp  (re.union  (str.to_re "\u{0A}")  (str.to.re "\u{3e}"))) (re.++ (re.comp  (re.union  (str.to_re "\u{0A}")  (str.to.re "\u{3e}"))) (re.++ (re.comp  (re.union  (str.to_re "\u{0A}")  (str.to.re "\u{3e}"))) (re.++ (re.comp  (re.union  (str.to_re "\u{0A}")  (str.to.re "\u{3e}"))) (re.++ (re.comp  (re.union  (str.to_re "\u{0A}")  (str.to.re "\u{3e}"))) (re.++ (re.comp  (re.union  (str.to_re "\u{0A}")  (str.to.re "\u{3e}"))) (re.++ (re.comp  (re.union  (str.to_re "\u{0A}")  (str.to.re "\u{3e}"))) (re.++ (re.comp  (re.union  (str.to_re "\u{0A}")  (str.to.re "\u{3e}"))) (re.++ (re.comp  (re.union  (str.to_re "\u{0A}")  (str.to.re "\u{3e}"))) (re.++ (re.comp  (re.union  (str.to_re "\u{0A}")  (str.to.re "\u{3e}"))) (re.++ (re.comp  (re.union  (str.to_re "\u{0A}")  (str.to.re "\u{3e}"))) (re.++ (re.comp  (re.union  (str.to_re "\u{0A}")  (str.to.re "\u{3e}"))) (re.++ (re.comp  (re.union  (str.to_re "\u{0A}")  (str.to.re "\u{3e}"))) (re.++ (re.comp  (re.union  (str.to_re "\u{0A}")  (str.to.re "\u{3e}"))) (re.++ (re.comp  (re.union  (str.to_re "\u{0A}")  (str.to.re "\u{3e}"))) (re.++ (re.comp  (re.union  (str.to_re "\u{0A}")  (str.to.re "\u{3e}"))) (re.++ (re.comp  (re.union  (str.to_re "\u{0A}")  (str.to.re "\u{3e}"))) (re.++ (re.comp  (re.union  (str.to_re "\u{0A}")  (str.to.re "\u{3e}"))) (re.++ (re.comp  (re.union  (str.to_re "\u{0A}")  (str.to.re "\u{3e}"))) (re.++ (re.comp  (re.union  (str.to_re "\u{0A}")  (str.to.re "\u{3e}"))) (re.++ (re.comp  (re.union  (str.to_re "\u{0A}")  (str.to.re "\u{3e}"))) (re.++ (re.comp  (re.union  (str.to_re "\u{0A}")  (str.to.re "\u{3e}"))) (re.++ (re.comp  (re.union  (str.to_re "\u{0A}")  (str.to.re "\u{3e}"))) (re.++ (re.comp  (re.union  (str.to_re "\u{0A}")  (str.to.re "\u{3e}"))) (re.++ (re.comp  (re.union  (str.to_re "\u{0A}")  (str.to.re "\u{3e}"))) (re.++ (re.comp  (re.union  (str.to_re "\u{0A}")  (str.to.re "\u{3e}"))) (re.++ (re.comp  (re.union  (str.to_re "\u{0A}")  (str.to.re "\u{3e}"))) (re.++ (re.comp  (re.union  (str.to_re "\u{0A}")  (str.to.re "\u{3e}"))) (re.++ (re.comp  (re.union  (str.to_re "\u{0A}")  (str.to.re "\u{3e}"))) (re.++ (re.comp  (re.union  (str.to_re "\u{0A}")  (str.to.re "\u{3e}"))) (re.++ (re.comp  (re.union  (str.to_re "\u{0A}")  (str.to.re "\u{3e}"))) (re.++ (re.comp  (re.union  (str.to_re "\u{0A}")  (str.to.re "\u{3e}"))) (re.++ (re.comp  (re.union  (str.to_re "\u{0A}")  (str.to.re "\u{3e}"))) (re.++ (re.comp  (re.union  (str.to_re "\u{0A}")  (str.to.re "\u{3e}"))) (re.++ (re.comp  (re.union  (str.to_re "\u{0A}")  (str.to.re "\u{3e}"))) (re.++ (re.comp  (re.union  (str.to_re "\u{0A}")  (str.to.re "\u{3e}"))) (re.++ (re.comp  (re.union  (str.to_re "\u{0A}")  (str.to.re "\u{3e}"))) (re.++ (re.comp  (re.union  (str.to_re "\u{0A}")  (str.to.re "\u{3e}"))) (re.++ (re.comp  (re.union  (str.to_re "\u{0A}")  (str.to.re "\u{3e}"))) (re.++ (re.comp  (re.union  (str.to_re "\u{0A}")  (str.to.re "\u{3e}"))) (re.++ (re.comp  (re.union  (str.to_re "\u{0A}")  (str.to.re "\u{3e}"))) (re.++ (re.comp  (re.union  (str.to_re "\u{0A}")  (str.to.re "\u{3e}"))) (re.++ (re.comp  (re.union  (str.to_re "\u{0A}")  (str.to.re "\u{3e}"))) (re.++ (re.comp  (re.union  (str.to_re "\u{0A}")  (str.to.re "\u{3e}"))) (re.++ (re.comp  (re.union  (str.to_re "\u{0A}")  (str.to.re "\u{3e}"))) (re.++ (re.comp  (re.union  (str.to_re "\u{0A}")  (str.to.re "\u{3e}"))) (re.++ (re.comp  (re.union  (str.to_re "\u{0A}")  (str.to.re "\u{3e}"))) (re.++ (re.comp  (re.union  (str.to_re "\u{0A}")  (str.to.re "\u{3e}"))) (re.++ (re.comp  (re.union  (str.to_re "\u{0A}")  (str.to.re "\u{3e}"))) (re.++ (re.comp  (re.union  (str.to_re "\u{0A}")  (str.to.re "\u{3e}"))) (re.++ (re.comp  (re.union  (str.to_re "\u{0A}")  (str.to.re "\u{3e}"))) (re.++ (re.comp  (re.union  (str.to_re "\u{0A}")  (str.to.re "\u{3e}"))) (re.++ (re.comp  (re.union  (str.to_re "\u{0A}")  (str.to.re "\u{3e}"))) (re.++ (re.comp  (re.union  (str.to_re "\u{0A}")  (str.to.re "\u{3e}"))) (re.++ (re.comp  (re.union  (str.to_re "\u{0A}")  (str.to.re "\u{3e}"))) (re.++ (re.comp  (re.union  (str.to_re "\u{0A}")  (str.to.re "\u{3e}"))) (re.++ (re.comp  (re.union  (str.to_re "\u{0A}")  (str.to.re "\u{3e}"))) (re.++ (re.comp  (re.union  (str.to_re "\u{0A}")  (str.to.re "\u{3e}"))) (re.++ (re.comp  (re.union  (str.to_re "\u{0A}")  (str.to.re "\u{3e}"))) (re.++ (re.comp  (re.union  (str.to_re "\u{0A}")  (str.to.re "\u{3e}"))) (re.++ (re.comp  (re.union  (str.to_re "\u{0A}")  (str.to.re "\u{3e}"))) (re.comp  (re.union  (str.to_re "\u{0A}")  (str.to.re "\u{3e}")))))))))))))))))))))))))))))))))))))))))))))))))))))))))))))))))))) )))
(check-sat)
(get-model)