TCS_Benchmarks/redos_fix/snort3_output_distinct_2077_2076_2_0.txt
(\s*)([^\n>]{64})
(\s*)(<?)([^\n>]{64})